100
100
70
68
67
67
66
66
66
65
64
64
63
62
61
60
60
60
59
58
58
58
57
56
56
55
54
54
53
53
52
52
52
52
51
51
51
50
49
49
49
49
48
47
46
44
44
42
40
40
40
39
39
38
38
38
38
38
37
37
36
36
36
34
34
34
33
33
33
32
32
31
31
31
30
30
29
29
27
25
25
25
23
22
22
20
20
19
17
17
17
16
16
16
14
13
13
13
12
12
12
11
